100 61648

 632 850
894 911
567 819
27 141
630 83
733 177
231 198
565 624
807 568
321 972
913 691
233 421
670 401
437 698
781 471
533 218
403 925
53 929
787 828
313 987
281 729
726 632
31 951
337 906
183 175
23 23
544 725
446 917
74 235
10 13
484 101
456 929
566 536
564 876
660 523
160 785
882 452
14 431
178 793
412 606
878 713
53 533
408 852
847 979
22 723
30 652
703 293
260 810
205 913
59 101
471 502
776 304
466 871
12 540
631 553
927 355
974 303
290 496
850 658
760 768
354 974
639 227
75 236
873 873
716 892
561 455
591 13
441 210
991 741
241 397
861 100
154 31
786 898
96 528
726 649
294 329
209 166
343 459
88 822
818 952
776 982
937 993
390 100
325 621
940 855
889 173
832 749
157 162
668 905
651 728
633 776
577 263
619 804
659 274
137 3
923 28
674 326
428 940
452 149
612 540
